sat
(
(define-fun sym5074 () String "G")
(define-fun sym5291 () String "P")
(define-fun sym6985 () String "H")
(define-fun sym6127 () String "K")
(define-fun sym209 () String "Y")
(define-fun sym1900 () String "L")
(define-fun sym5727 () String "K")
(define-fun sym1248 () String "G")
(define-fun sym3601 () String "L")
(define-fun sym4656 () String "G")
(define-fun sym2116 () String "G")
(define-fun sym2751 () String "G")
(define-fun sym4235 () String "G")
(define-fun sym4872 () String "G")
(define-fun sym2332 () String "H")
(define-fun sym3385 () String "G")
(define-fun sym161 () String "")
(define-fun sym3183 () String "G")
(define-fun sym7188 () String "K")
(define-fun sym6575 () String "R")
(define-fun sym6334 () String "K")
(define-fun sym7602 () String "K")
(define-fun sym6778 () String "K")
(define-fun sym7889 () String "A")
(define-fun sym816 () String "G")
(define-fun sym3813 () String "G")
(define-fun sym7809 () String "K")
(define-fun sym2549 () String "G")
(define-fun sym2967 () String "G")
(define-fun sym551 () String "G")
(define-fun sym1457 () String "G")
(define-fun sym5934 () String "K")
(define-fun sym4029 () String "G")
(define-fun sym1673 () String "G")
(define-fun sym5513 () String "K")
(define-fun sym4441 () String "H")
(define-fun sym1032 () String "G")
(define-fun sym7395 () String "K")
)
